164
0 33 161 124 148 40 134 82 123 23 
144 66 9 29 150 13 16 101 109 39 
147 107 103 87 59 85 72 3 106 159 
30 135 54 68 155 61 28 46 1 34 
156 51 27 110 55 99 139 145 37 10 
163 89 64 63 73 62 2 86 94 162 
26 116 52 152 83 22 90 58 69 44 
96 133 77 32 15 75 157 126 79 119 
146 121 81 43 137 38 57 115 160 24 
128 78 132 104 19 92 8 70 11 98 
114 111 7 67 12 130 48 113 136 91 
141 49 140 35 74 149 65 154 60 84 
47 76 131 100 127 143 20 80 4 88 
53 25 93 17 5 108 56 50 153 105 
125 102 31 122 138 142 18 14 45 6 
158 71 97 118 41 42 21 151 36 129 
95 112 117 120 
